0000000000000000
0000000000000000
0001110000000000
0001110000000000
0001111111111000
0001111111111000
0000000000011000
0000000000011000
0000000000011000
0000000000011000
0000000000110000
0000000001110000
0000000111100000
0000111111000000
0000111110000000
0000000000000000
